
--- Job NLP_optimalcontrol.gms Start 09/27/18 20:03:05 24.7.4 r58773 WEX-WEI x86 64bit/MS Windows
GAMS 24.7.4   Copyright (C) 1987-2016 GAMS Development. All rights reserved
Licensee: GAMS Development Corporation, Washington, DC   G871201/0000CA-ANY
          Free Demo,  202-342-0180,  sales@gams.com,  www.gams.com   DC0000
--- Starting compilation
--- NLP_optimalcontrol.gms(51) 3 Mb
--- Starting execution: elapsed 0:00:00.007
--- NLP_optimalcontrol.gms(40) 4 Mb
--- Generating NLP model Optimal_Control
--- NLP_optimalcontrol.gms(43) 6 Mb
---   209 rows  279 columns  898 non-zeroes
---   2,076 nl-code  346 nl-non-zeroes
--- NLP_optimalcontrol.gms(43) 4 Mb
--- Executing IPOPT: elapsed 0:00:00.018

COIN-OR Ipopt    24.7.4 r58773 Released Sep 19, 2016 WEI x86 64bit/MS Windows 

COIN-OR Interior Point Optimizer (Ipopt Library 3.12)
written by A. Waechter.

******************************************************************************
This program contains Ipopt, a library for large-scale nonlinear optimization.
 Ipopt is released as open source code under the Eclipse Public License (EPL).
         For more information visit http://projects.coin-or.org/Ipopt
******************************************************************************

This is Ipopt version 3.12, running with linear solver mumps.

Number of nonzeros in equality constraint Jacobian...:      825
Number of nonzeros in inequality constraint Jacobian.:        0
Number of nonzeros in Lagrangian Hessian.............:      138

Total number of variables............................:      276
                     variables with only lower bounds:       69
                variables with lower and upper bounds:       68
                     variables with only upper bounds:        0
Total number of equality constraints.................:      208
Total number of inequality constraints...............:        0
        inequality constraints with only lower bounds:        0
   inequality constraints with lower and upper bounds:        0
        inequality constraints with only upper bounds:        0

iter    objective    inf_pr   inf_du lg(mu)  ||d||  lg(rg) alpha_du alpha_pr  ls
   0 0.0000000e+000 6.83e+001 2.13e-003   0.0 0.00e+000    -  0.00e+000 0.00e+000   0
   1 1.5355736e+000 6.73e+001 1.26e+004   2.1 1.26e+002    -  9.95e-001 1.43e-002f  1
   2 2.8869491e-001 8.93e+001 1.38e+006   2.3 1.99e+001    -  2.50e-002 1.00e+000f  1
   3 1.1061633e+000 6.08e+001 1.66e+006   1.6 2.16e+000   4.0 3.23e-002 1.00e+000f  1
   4 7.1814515e-001 4.09e+001 1.10e+006   0.9 5.96e+001    -  2.69e-001 3.45e-001h  1
   5 4.7634431e-001 2.81e+001 7.56e+005   0.9 8.84e+002    -  4.41e-002 3.20e-001h  1
   6 2.8174440e-001 1.70e+001 4.65e+005   0.9 2.21e+003    -  3.31e-001 4.18e-001h  1
   7 6.9986214e-002 1.59e+000 6.80e+004   0.9 2.06e+001    -  9.97e-001 1.00e+000f  1
   8 5.0669505e-002 2.31e-002 1.67e+003  -0.1 8.06e+000    -  1.00e+000 1.00e+000h  1
   9 5.0332865e-002 7.36e-006 8.51e-001  -2.3 2.39e+000    -  9.90e-001 1.00e+000h  1
iter    objective    inf_pr   inf_du lg(mu)  ||d||  lg(rg) alpha_du alpha_pr  ls
  10 1.5189540e-002 1.35e-001 4.84e-002  -2.3 2.57e+002    -  9.92e-001 1.00e+000f  1
  11 7.6131738e-003 3.55e-001 4.09e-003  -3.1 9.31e+002    -  9.95e-001 1.00e+000h  1
  12 6.4916523e-003 1.40e-003 1.92e-005  -4.1 1.03e+001    -  1.00e+000 1.00e+000h  1
  13 3.8089453e-003 2.63e-002 2.68e-005  -4.8 1.94e+002    -  9.91e-001 1.00e+000h  1
  14 2.4931393e-003 1.52e-002 1.17e-005  -6.8 7.43e+002    -  9.96e-001 1.00e+000h  1
  15 2.2170736e-003 1.12e-003 7.78e-007  -7.0 2.40e+002    -  1.00e+000 1.00e+000h  1
  16 2.1908456e-003 1.52e-005 1.08e-008  -8.8 4.15e+001    -  1.00e+000 1.00e+000h  1
  17 2.1905286e-003 2.99e-009 2.10e-012 -11.0 7.79e-001    -  1.00e+000 1.00e+000h  1

Number of Iterations....: 17

                                   (scaled)                 (unscaled)
Objective...............:  2.1905286272232965e-003   2.1905286272232965e-003
Dual infeasibility......:  2.1031435240877643e-012   2.1031435240877643e-012
Constraint violation....:  2.1446201974004506e-009   2.9937936574242485e-009
Complementarity.........:  1.1419138362258863e-011   1.1419138362258863e-011
Overall NLP error.......:  2.1446201974004506e-009   2.9937936574242485e-009


Number of objective function evaluations             = 18
Number of objective gradient evaluations             = 18
Number of equality constraint evaluations            = 18
Number of inequality constraint evaluations          = 0
Number of equality constraint Jacobian evaluations   = 18
Number of inequality constraint Jacobian evaluations = 0
Number of Lagrangian Hessian evaluations             = 17
Total CPU secs in IPOPT (w/o function evaluations)   =      0.183
Total CPU secs in NLP function evaluations           =      0.004

EXIT: Optimal Solution Found.
--- Restarting execution
--- NLP_optimalcontrol.gms(43) 2 Mb
--- Reading solution for model Optimal_Control
--- Executing after solve: elapsed 0:00:00.580
--- NLP_optimalcontrol.gms(45) 3 Mb
--- Putfile q C:\Users\vsunj\Documents\gamsdir\projdir\q.txt
*** Status: Normal completion
--- Job NLP_optimalcontrol.gms Stop 09/27/18 20:03:06 elapsed 0:00:00.582
